Gurobi Optimizer version 9.1.0 build v9.1.0rc0 (linux64)
Thread count: 8 physical cores, 16 logical processors, using up to 16 threads
Optimize a model with 207966 rows, 200800 columns and 1151950 nonzeros
Model fingerprint: 0x6dcd5a60
Variable types: 0 continuous, 200800 integer (200800 binary)
Coefficient statistics:
  Matrix range     [1e+00, 1e+00]
  Objective range  [1e+01, 5e+04]
  Bounds range     [1e+00, 1e+00]
  RHS range        [1e+00, 5e+02]
Presolve removed 3050 rows and 50 columns (presolve time = 6s) ...
Presolve added 0 rows and 2950 columns
Presolve removed 50 rows and 0 columns
Presolve time: 6.23s
Presolved: 207916 rows, 203750 columns, 860850 nonzeros
Variable types: 0 continuous, 203750 integer (203750 binary)
Found heuristic solution: objective 751795.00000

Concurrent LP optimizer: primal simplex, dual simplex, and barrier
Showing barrier log only...

Root barrier log...

Ordering time: 0.06s

Barrier statistics:
 Dense cols : 400
 AA' NZ     : 6.668e+05
 Factor NZ  : 2.815e+06 (roughly 200 MBytes of memory)
 Factor Ops : 6.809e+08 (less than 1 second per iteration)
 Threads    : 6

                  Objective                Residual
Iter       Primal          Dual         Primal    Dual     Compl     Time
   0   2.14405370e+08 -2.88320311e+08  4.73e+02 3.11e+01  1.65e+04    10s
   1   1.35290725e+06 -3.29008964e+08  1.47e+00 6.92e+02  5.90e+02    10s
   2   9.29317815e+05 -1.54492640e+08  4.19e-01 3.32e+02  2.64e+02    11s
   3   8.53929098e+05 -7.07634340e+07  2.26e-01 1.48e+02  1.20e+02    11s
   4   7.89270062e+05 -2.66161746e+07  4.78e-02 5.35e+01  4.54e+01    11s
   5   7.65464571e+05 -3.79663475e+06  9.83e-03 1.85e+01  7.52e+00    12s
   6   7.43033926e+05 -7.82288559e+05  5.59e-03 6.47e+00  2.51e+00    12s
   7   7.21568652e+05  2.04838897e+05  3.77e-03 1.99e+00  8.48e-01    12s
   8   7.10289149e+05  3.86546541e+05  3.23e-03 1.13e+00  5.31e-01    13s
   9   7.05270755e+05  4.43993425e+05  3.02e-03 8.48e-01  4.28e-01    13s
  10   6.93378212e+05  5.01331566e+05  2.56e-03 5.79e-01  3.14e-01    14s
  11   6.88417359e+05  5.25942764e+05  2.39e-03 4.50e-01  2.66e-01    14s
  12   6.76724854e+05  5.47287762e+05  1.95e-03 3.52e-01  2.12e-01    14s
  13   6.69528678e+05  5.73000810e+05  1.70e-03 2.22e-01  1.58e-01    15s
  14   6.62861854e+05  5.86891518e+05  1.48e-03 1.53e-01  1.24e-01    15s
  15   6.53376811e+05  5.94583414e+05  1.17e-03 1.14e-01  9.59e-02    16s
  16   6.47690705e+05  6.01216770e+05  9.83e-04 8.06e-02  7.58e-02    17s
  17   6.42498022e+05  6.04232005e+05  8.10e-04 6.54e-02  6.24e-02    17s
  18   6.38908196e+05  6.07637373e+05  6.96e-04 4.92e-02  5.09e-02    18s
  19   6.35745100e+05  6.09773969e+05  5.94e-04 3.89e-02  4.23e-02    18s
  20   6.32206566e+05  6.10844682e+05  4.78e-04 3.36e-02  3.48e-02    19s
  21   6.29782418e+05  6.11726782e+05  3.98e-04 2.95e-02  2.94e-02    19s
  22   6.28429386e+05  6.12486493e+05  3.52e-04 2.59e-02  2.60e-02    20s
  23   6.26979215e+05  6.12964512e+05  3.02e-04 2.36e-02  2.28e-02    20s
  24   6.25916364e+05  6.13520427e+05  2.65e-04 2.10e-02  2.02e-02    21s
  25   6.25217883e+05  6.14422491e+05  2.41e-04 1.69e-02  1.76e-02    21s
  26   6.24543509e+05  6.14544047e+05  2.18e-04 1.63e-02  1.63e-02    22s
  27   6.24027623e+05  6.14828362e+05  2.01e-04 1.52e-02  1.50e-02    22s
  28   6.22836179e+05  6.15238234e+05  1.61e-04 1.32e-02  1.24e-02    23s
  29   6.22359743e+05  6.15723947e+05  1.45e-04 1.10e-02  1.08e-02    23s
  30   6.21909405e+05  6.15856493e+05  1.30e-04 1.04e-02  9.87e-03    23s
  31   6.21837555e+05  6.15948259e+05  1.27e-04 9.97e-03  9.60e-03    24s
  32   6.21578593e+05  6.16138409e+05  1.18e-04 9.05e-03  8.87e-03    24s
  33   6.21325410e+05  6.16175135e+05  1.10e-04 8.87e-03  8.39e-03    25s
  34   6.20800518e+05  6.16309219e+05  9.21e-05 8.20e-03  7.32e-03    25s
  35   6.20642135e+05  6.16518062e+05  8.67e-05 7.21e-03  6.72e-03    26s
  36   6.20433112e+05  6.16673900e+05  7.99e-05 6.47e-03  6.13e-03    26s
  37   6.20316921e+05  6.16821180e+05  7.60e-05 5.75e-03  5.70e-03    27s
  38   6.20041223e+05  6.16937907e+05  6.70e-05 5.17e-03  5.06e-03    27s
  39   6.19824385e+05  6.17066481e+05  5.97e-05 4.55e-03  4.49e-03    28s
  40   6.19509122e+05  6.17121129e+05  4.94e-05 4.26e-03  3.89e-03    28s
  41   6.19390257e+05  6.17222679e+05  4.55e-05 3.78e-03  3.53e-03    29s
  42   6.19302919e+05  6.17243757e+05  4.27e-05 3.67e-03  3.36e-03    29s
  43   6.19111975e+05  6.17332261e+05  3.66e-05 3.23e-03  2.90e-03    30s
  44   6.19023831e+05  6.17370494e+05  3.37e-05 3.05e-03  2.70e-03    30s
  45   6.18961772e+05  6.17407746e+05  3.17e-05 2.87e-03  2.53e-03    31s
  46   6.18905308e+05  6.17450132e+05  2.99e-05 2.67e-03  2.37e-03    31s
  47   6.18874104e+05  6.17529011e+05  2.87e-05 2.29e-03  2.19e-03    32s
  48   6.18748097e+05  6.17554612e+05  2.46e-05 2.15e-03  1.95e-03    32s
  49   6.18687084e+05  6.17591432e+05  2.26e-05 1.99e-03  1.79e-03    33s
  50   6.18653564e+05  6.17633243e+05  2.15e-05 1.79e-03  1.66e-03    33s
  51   6.18609952e+05  6.17662976e+05  2.01e-05 1.64e-03  1.54e-03    33s
  52   6.18555551e+05  6.17685423e+05  1.83e-05 1.53e-03  1.42e-03    34s
  53   6.18536120e+05  6.17698953e+05  1.77e-05 1.47e-03  1.36e-03    34s
  54   6.18512130e+05  6.17719505e+05  1.69e-05 1.36e-03  1.29e-03    35s
  55   6.18473489e+05  6.17746894e+05  1.56e-05 1.23e-03  1.18e-03    35s
  56   6.18419859e+05  6.17757684e+05  1.39e-05 1.17e-03  1.08e-03    36s
  57   6.18385988e+05  6.17776822e+05  1.28e-05 1.08e-03  9.93e-04    36s
  58   6.18369429e+05  6.17812957e+05  1.22e-05 9.03e-04  9.07e-04    37s
  59   6.18310878e+05  6.17824895e+05  1.02e-05 8.46e-04  7.92e-04    37s
  60   6.18285731e+05  6.17848385e+05  9.41e-06 7.34e-04  7.13e-04    38s
  61   6.18257336e+05  6.17862075e+05  8.48e-06 6.68e-04  6.44e-04    38s
  62   6.18249893e+05  6.17871478e+05  8.23e-06 6.16e-04  6.17e-04    39s
  63   6.18214599e+05  6.17877317e+05  7.08e-06 5.83e-04  5.50e-04    39s
  64   6.18196892e+05  6.17896765e+05  6.50e-06 4.81e-04  4.89e-04    40s
  65   6.18178764e+05  6.17908590e+05  5.93e-06 4.22e-04  4.40e-04    40s
  66   6.18170079e+05  6.17915056e+05  5.65e-06 3.92e-04  4.15e-04    40s
  67   6.18150646e+05  6.17919612e+05  5.02e-06 3.69e-04  3.76e-04    41s
  68   6.18146116e+05  6.17921175e+05  4.87e-06 3.60e-04  3.67e-04    41s
  69   6.18129966e+05  6.17929845e+05  4.33e-06 3.16e-04  3.26e-04    42s
  70   6.18126365e+05  6.17934001e+05  4.21e-06 2.97e-04  3.13e-04    42s
  71   6.18101275e+05  6.17945433e+05  3.38e-06 2.41e-04  2.54e-04    43s
  72   6.18082632e+05  6.17951142e+05  2.76e-06 2.13e-04  2.14e-04    43s
  73   6.18066282e+05  6.17963638e+05  2.23e-06 1.53e-04  1.67e-04    43s
  74   6.18052596e+05  6.17966520e+05  1.79e-06 1.39e-04  1.40e-04    44s
  75   6.18045444e+05  6.17974036e+05  1.56e-06 1.03e-04  1.16e-04    44s
  76   6.18028762e+05  6.17980442e+05  1.02e-06 7.22e-05  7.87e-05    44s
  77   6.18016456e+05  6.17985732e+05  6.28e-07 4.69e-05  5.01e-05    45s
  78   6.18002127e+05  6.17993586e+05  1.76e-07 1.24e-05  1.39e-05    45s
  79   6.17996388e+05  6.17996135e+05  5.13e-09 8.11e-07  4.12e-07    46s
  80   6.17996192e+05  6.17996192e+05  6.71e-11 4.93e-08  4.14e-10    46s

Barrier solved model in 80 iterations and 45.97 seconds
Optimal objective 6.17996192e+05


Root crossover log...

  131522 DPushes remaining with DInf 0.0000000e+00                46s
    1169 DPushes remaining with DInf 0.0000000e+00                50s
       0 DPushes remaining with DInf 0.0000000e+00                51s

     615 PPushes remaining with PInf 0.0000000e+00                51s
       0 PPushes remaining with PInf 0.0000000e+00                51s

  Push phase complete: Pinf 0.0000000e+00, Dinf 9.0039975e-11     51s


Root simplex log...

Iteration    Objective       Primal Inf.    Dual Inf.      Time
   17962    6.1799619e+05   0.000000e+00   0.000000e+00     51s
   17962    6.1799619e+05   0.000000e+00   0.000000e+00     51s

Solved with barrier

Root relaxation: objective 6.179962e+05, 17962 iterations, 42.52 seconds

    Nodes    |    Current Node    |     Objective Bounds      |     Work
 Expl Unexpl |  Obj  Depth IntInf | Incumbent    BestBd   Gap | It/Node Time

     0     0 617996.192    0 6688 751795.000 617996.192  17.8%     -   54s
H    0     0                    619004.00000 617996.192  0.16%     -   59s
H    0     0                    618963.00000 617996.192  0.16%     -   60s
H    0     0                    618916.00000 617996.192  0.15%     -   61s
     0     0 618003.199    0 6713 618916.000 618003.199  0.15%     -   79s
     0     0 618003.199    0 6631 618916.000 618003.199  0.15%     -  120s
H    0     0                    618908.00000 618003.199  0.15%     -  121s
H    0     0                    618844.00000 618003.199  0.14%     -  121s
     0     0 618003.199    0 6666 618844.000 618003.199  0.14%     -  147s
H    0     0                    618093.00000 618003.199  0.01%     -  154s
     0     0 618003.214    0 6676 618093.000 618003.214  0.01%     -  156s
     0     0 618007.295    0 6732 618093.000 618007.295  0.01%     -  160s
     0     0 618007.295    0 5879 618093.000 618007.295  0.01%     -  165s
H    0     0                    618089.00000 618007.295  0.01%     -  169s
H    0     0                    618088.00000 618007.295  0.01%     -  169s
H    0     0                    618087.00000 618007.295  0.01%     -  171s
     0     0 618012.830    0 5885 618087.000 618012.830  0.01%     -  172s
     0     0 618076.050    0 5885 618087.000 618076.050  0.00%     -  172s

Cutting planes:
  Clique: 3
  Zero half: 29
  RLT: 15

Explored 1 nodes (39037 simplex iterations) in 172.60 seconds
Thread count was 16 (of 16 available processors)

Solution count 10: 618087 618088 618089 ... 618963

Optimal solution found (tolerance 1.00e-04)
Best objective 6.180870000000e+05, best bound 6.180760500000e+05, gap 0.0018%

User-callback calls 14614, time in user-callback 0.23 sec
['/opt/local/stow/gurobi910/linux64/lib/libgurobi91.so']
Optimal Result: runtime=172.57sec; objective=618087
Solution written to /autofs/unityaccount/cremi/mdeboute/Bureau/multi-period-flp/solution/instMulti_I50_J500_T8_0_result.txt
